data;

param n:=21;
param p:=3;
param r:=[1] 0 [2] 1 [3] 4 [4] 3 [5] 6 [6] 15 [7] 9 [8] 16 [9] 9 [10] 2 [11] 7 [12] 15 [13] 1 [14] 18 [15] 40 [16] 38 [17] 44 [18] 24 [19] 3 [20] 48 [21] 27 ;
param w:=[1] 43 [2] 24 [3] 57 [4] 51 [5] 15 [6] 48 [7] 93 [8] 51 [9] 13 [10] 43 [11] 40 [12] 89 [13] 91 [14] 96 [15] 51 [16] 60 [17] 40 [18] 55 [19] 87 [20] 21 [21] 58 ;

end;
